(set-info :smt-lib-version 2.6)
(set-logic QF_UFLIA)
(set-info :source | MathSat group |)
(set-info :category "crafted")
(set-info :status sat)
(declare-fun hash_1 (Int) Int)
(declare-fun hash_2 (Int) Int)
(declare-fun hash_3 (Int) Int)
(declare-fun hash_4 (Int) Int)
(declare-fun hash_5 (Int) Int)
(declare-fun hash_6 (Int) Int)
(declare-fun hash_7 (Int) Int)
(declare-fun hash_8 (Int) Int)
(declare-fun hash_9 (Int) Int)
(declare-fun hash_10 (Int) Int)
(declare-fun hash_11 (Int) Int)
(declare-fun hash_12 (Int) Int)
(declare-fun hash_13 (Int) Int)
(declare-fun hash_14 (Int) Int)
(declare-fun hash_15 (Int) Int)
(declare-fun hash_16 (Int) Int)
(declare-fun hash_17 (Int) Int)
(declare-fun hash_18 (Int) Int)
(declare-fun x1 () Int)
(declare-fun x2 () Int)
(declare-fun x3 () Int)
(declare-fun x4 () Int)
(declare-fun x5 () Int)
(assert (let ((?v_0 (hash_1 x1)) (?v_1 (hash_1 x2)) (?v_2 (hash_1 x3)) (?v_3 (hash_1 x4)) (?v_4 (hash_1 x5)) (?v_5 (hash_2 x1)) (?v_6 (hash_2 x2)) (?v_7 (hash_2 x3)) (?v_8 (hash_2 x4)) (?v_9 (hash_2 x5)) (?v_10 (hash_3 x1)) (?v_11 (hash_3 x2)) (?v_12 (hash_3 x3)) (?v_13 (hash_3 x4)) (?v_14 (hash_3 x5)) (?v_15 (hash_4 x1)) (?v_16 (hash_4 x2)) (?v_17 (hash_4 x3)) (?v_18 (hash_4 x4)) (?v_19 (hash_4 x5)) (?v_20 (hash_5 x1)) (?v_21 (hash_5 x2)) (?v_22 (hash_5 x3)) (?v_23 (hash_5 x4)) (?v_24 (hash_5 x5)) (?v_25 (hash_6 x1)) (?v_26 (hash_6 x2)) (?v_27 (hash_6 x3)) (?v_28 (hash_6 x4)) (?v_29 (hash_6 x5)) (?v_30 (hash_7 x1)) (?v_31 (hash_7 x2)) (?v_32 (hash_7 x3)) (?v_33 (hash_7 x4)) (?v_34 (hash_7 x5)) (?v_35 (hash_8 x1)) (?v_36 (hash_8 x2)) (?v_37 (hash_8 x3)) (?v_38 (hash_8 x4)) (?v_39 (hash_8 x5)) (?v_40 (hash_9 x1)) (?v_41 (hash_9 x2)) (?v_42 (hash_9 x3)) (?v_43 (hash_9 x4)) (?v_44 (hash_9 x5)) (?v_45 (hash_10 x1)) (?v_46 (hash_10 x2)) (?v_47 (hash_10 x3)) (?v_48 (hash_10 x4)) (?v_49 (hash_10 x5)) (?v_50 (hash_11 x1)) (?v_51 (hash_11 x2)) (?v_52 (hash_11 x3)) (?v_53 (hash_11 x4)) (?v_54 (hash_11 x5)) (?v_55 (hash_12 x1)) (?v_56 (hash_12 x2)) (?v_57 (hash_12 x3)) (?v_58 (hash_12 x4)) (?v_59 (hash_12 x5)) (?v_60 (hash_13 x1)) (?v_61 (hash_13 x2)) (?v_62 (hash_13 x3)) (?v_63 (hash_13 x4)) (?v_64 (hash_13 x5)) (?v_65 (hash_14 x1)) (?v_66 (hash_14 x2)) (?v_67 (hash_14 x3)) (?v_68 (hash_14 x4)) (?v_69 (hash_14 x5)) (?v_70 (hash_15 x1)) (?v_71 (hash_15 x2)) (?v_72 (hash_15 x3)) (?v_73 (hash_15 x4)) (?v_74 (hash_15 x5)) (?v_75 (hash_16 x1)) (?v_76 (hash_16 x2)) (?v_77 (hash_16 x3)) (?v_78 (hash_16 x4)) (?v_79 (hash_16 x5)) (?v_80 (hash_17 x1)) (?v_81 (hash_17 x2)) (?v_82 (hash_17 x3)) (?v_83 (hash_17 x4)) (?v_84 (hash_17 x5)) (?v_85 (hash_18 x1)) (?v_86 (hash_18 x2)) (?v_87 (hash_18 x3)) (?v_88 (hash_18 x4)) (?v_89 (hash_18 x5)) (?v_90 (+ x1 x5)) (?v_91 (+ x1 x2))) (and (and (and (and (and (and (and (and (and (and (and (and (and (and (and (and (and (and (and (and (and (and (and (and (and (and (and (and (and (and (and (and (and (and (and (and (and (and (and (and (and (and (and (and (and (and (and (and (and (and (and (and (and (and (and (and (and (and (and (and (and (and (and (and (and (and (and (and (and (and (and (and (and (and (and (and (and (and (and (and (and (and (and (and (and (and (and (and (and (and (and (and (and (and (and (and (and (and (and (and (and (and (and (and (and (and (and (and (and (and (and (and (and (and (and (and (and (and (and (and (and (and (and (and (and (and (and (and (and (and (and (and (and (and (and (and (and (and (and (and (and (and (and (and (and (and (and (and (and (and (and (and (and (and (and (and (and (and (and (and (and (and (and (and (and (and (and (and (and (and (and (and (and (and (and (and (and (and (and (and (and (and (and (and (and (and (and (and (and (and (and (and (and (and (and (and (and (and (and (and (and (and (and (and (and (and (and (and (and (and (and (and (and (and (and (and (and (and (and (and (and (and (and (and (and (and (and (and (and (and (and (and (and (and (and (and (and (and (and (and (and (and (and (and (and (and (and (and (and (and (and (and (and (and (and (and (and (and (and (and (and (and (and (and (and (and (and (and (and (and (and (and (and (and (and (and (and (and (and (and (and (and (and (and (and (and (and (and (and (and (distinct ?v_0 ?v_1) (distinct ?v_0 ?v_2)) (distinct ?v_0 ?v_3)) (distinct ?v_0 ?v_4)) (distinct ?v_1 ?v_2)) (distinct ?v_1 ?v_3)) (distinct ?v_1 ?v_4)) (distinct ?v_2 ?v_3)) (distinct ?v_2 ?v_4)) (distinct ?v_3 ?v_4)) (distinct ?v_5 ?v_6)) (distinct ?v_5 ?v_7)) (distinct ?v_5 ?v_8)) (distinct ?v_5 ?v_9)) (distinct ?v_6 ?v_7)) (distinct ?v_6 ?v_8)) (distinct ?v_6 ?v_9)) (distinct ?v_7 ?v_8)) (distinct ?v_7 ?v_9)) (distinct ?v_8 ?v_9)) (distinct ?v_10 ?v_11)) (distinct ?v_10 ?v_12)) (distinct ?v_10 ?v_13)) (distinct ?v_10 ?v_14)) (distinct ?v_11 ?v_12)) (distinct ?v_11 ?v_13)) (distinct ?v_11 ?v_14)) (distinct ?v_12 ?v_13)) (distinct ?v_12 ?v_14)) (distinct ?v_13 ?v_14)) (distinct ?v_15 ?v_16)) (distinct ?v_15 ?v_17)) (distinct ?v_15 ?v_18)) (distinct ?v_15 ?v_19)) (distinct ?v_16 ?v_17)) (distinct ?v_16 ?v_18)) (distinct ?v_16 ?v_19)) (distinct ?v_17 ?v_18)) (distinct ?v_17 ?v_19)) (distinct ?v_18 ?v_19)) (distinct ?v_20 ?v_21)) (distinct ?v_20 ?v_22)) (distinct ?v_20 ?v_23)) (distinct ?v_20 ?v_24)) (distinct ?v_21 ?v_22)) (distinct ?v_21 ?v_23)) (distinct ?v_21 ?v_24)) (distinct ?v_22 ?v_23)) (distinct ?v_22 ?v_24)) (distinct ?v_23 ?v_24)) (distinct ?v_25 ?v_26)) (distinct ?v_25 ?v_27)) (distinct ?v_25 ?v_28)) (distinct ?v_25 ?v_29)) (distinct ?v_26 ?v_27)) (distinct ?v_26 ?v_28)) (distinct ?v_26 ?v_29)) (distinct ?v_27 ?v_28)) (distinct ?v_27 ?v_29)) (distinct ?v_28 ?v_29)) (distinct ?v_30 ?v_31)) (distinct ?v_30 ?v_32)) (distinct ?v_30 ?v_33)) (distinct ?v_30 ?v_34)) (distinct ?v_31 ?v_32)) (distinct ?v_31 ?v_33)) (distinct ?v_31 ?v_34)) (distinct ?v_32 ?v_33)) (distinct ?v_32 ?v_34)) (distinct ?v_33 ?v_34)) (distinct ?v_35 ?v_36)) (distinct ?v_35 ?v_37)) (distinct ?v_35 ?v_38)) (distinct ?v_35 ?v_39)) (distinct ?v_36 ?v_37)) (distinct ?v_36 ?v_38)) (distinct ?v_36 ?v_39)) (distinct ?v_37 ?v_38)) (distinct ?v_37 ?v_39)) (distinct ?v_38 ?v_39)) (distinct ?v_40 ?v_41)) (distinct ?v_40 ?v_42)) (distinct ?v_40 ?v_43)) (distinct ?v_40 ?v_44)) (distinct ?v_41 ?v_42)) (distinct ?v_41 ?v_43)) (distinct ?v_41 ?v_44)) (distinct ?v_42 ?v_43)) (distinct ?v_42 ?v_44)) (distinct ?v_43 ?v_44)) (distinct ?v_45 ?v_46)) (distinct ?v_45 ?v_47)) (distinct ?v_45 ?v_48)) (distinct ?v_45 ?v_49)) (distinct ?v_46 ?v_47)) (distinct ?v_46 ?v_48)) (distinct ?v_46 ?v_49)) (distinct ?v_47 ?v_48)) (distinct ?v_47 ?v_49)) (distinct ?v_48 ?v_49)) (distinct ?v_50 ?v_51)) (distinct ?v_50 ?v_52)) (distinct ?v_50 ?v_53)) (distinct ?v_50 ?v_54)) (distinct ?v_51 ?v_52)) (distinct ?v_51 ?v_53)) (distinct ?v_51 ?v_54)) (distinct ?v_52 ?v_53)) (distinct ?v_52 ?v_54)) (distinct ?v_53 ?v_54)) (distinct ?v_55 ?v_56)) (distinct ?v_55 ?v_57)) (distinct ?v_55 ?v_58)) (distinct ?v_55 ?v_59)) (distinct ?v_56 ?v_57)) (distinct ?v_56 ?v_58)) (distinct ?v_56 ?v_59)) (distinct ?v_57 ?v_58)) (distinct ?v_57 ?v_59)) (distinct ?v_58 ?v_59)) (distinct ?v_60 ?v_61)) (distinct ?v_60 ?v_62)) (distinct ?v_60 ?v_63)) (distinct ?v_60 ?v_64)) (distinct ?v_61 ?v_62)) (distinct ?v_61 ?v_63)) (distinct ?v_61 ?v_64)) (distinct ?v_62 ?v_63)) (distinct ?v_62 ?v_64)) (distinct ?v_63 ?v_64)) (distinct ?v_65 ?v_66)) (distinct ?v_65 ?v_67)) (distinct ?v_65 ?v_68)) (distinct ?v_65 ?v_69)) (distinct ?v_66 ?v_67)) (distinct ?v_66 ?v_68)) (distinct ?v_66 ?v_69)) (distinct ?v_67 ?v_68)) (distinct ?v_67 ?v_69)) (distinct ?v_68 ?v_69)) (distinct ?v_70 ?v_71)) (distinct ?v_70 ?v_72)) (distinct ?v_70 ?v_73)) (distinct ?v_70 ?v_74)) (distinct ?v_71 ?v_72)) (distinct ?v_71 ?v_73)) (distinct ?v_71 ?v_74)) (distinct ?v_72 ?v_73)) (distinct ?v_72 ?v_74)) (distinct ?v_73 ?v_74)) (distinct ?v_75 ?v_76)) (distinct ?v_75 ?v_77)) (distinct ?v_75 ?v_78)) (distinct ?v_75 ?v_79)) (distinct ?v_76 ?v_77)) (distinct ?v_76 ?v_78)) (distinct ?v_76 ?v_79)) (distinct ?v_77 ?v_78)) (distinct ?v_77 ?v_79)) (distinct ?v_78 ?v_79)) (distinct ?v_80 ?v_81)) (distinct ?v_80 ?v_82)) (distinct ?v_80 ?v_83)) (distinct ?v_80 ?v_84)) (distinct ?v_81 ?v_82)) (distinct ?v_81 ?v_83)) (distinct ?v_81 ?v_84)) (distinct ?v_82 ?v_83)) (distinct ?v_82 ?v_84)) (distinct ?v_83 ?v_84)) (distinct ?v_85 ?v_86)) (distinct ?v_85 ?v_87)) (distinct ?v_85 ?v_88)) (distinct ?v_85 ?v_89)) (distinct ?v_86 ?v_87)) (distinct ?v_86 ?v_88)) (distinct ?v_86 ?v_89)) (distinct ?v_87 ?v_88)) (distinct ?v_87 ?v_89)) (distinct ?v_88 ?v_89)) (or (or (or (or (= ?v_0 x1) (= ?v_0 x2)) (= ?v_0 x3)) (= ?v_0 x4)) (= ?v_0 x5))) (or (or (or (or (= ?v_1 x1) (= ?v_1 x2)) (= ?v_1 x3)) (= ?v_1 x4)) (= ?v_1 x5))) (or (or (or (or (= ?v_2 x1) (= ?v_2 x2)) (= ?v_2 x3)) (= ?v_2 x4)) (= ?v_2 x5))) (or (or (or (or (= ?v_3 x1) (= ?v_3 x2)) (= ?v_3 x3)) (= ?v_3 x4)) (= ?v_3 x5))) (or (or (or (or (= ?v_4 x1) (= ?v_4 x2)) (= ?v_4 x3)) (= ?v_4 x4)) (= ?v_4 x5))) (or (or (or (or (= ?v_5 x1) (= ?v_5 x2)) (= ?v_5 x3)) (= ?v_5 x4)) (= ?v_5 x5))) (or (or (or (or (= ?v_6 x1) (= ?v_6 x2)) (= ?v_6 x3)) (= ?v_6 x4)) (= ?v_6 x5))) (or (or (or (or (= ?v_7 x1) (= ?v_7 x2)) (= ?v_7 x3)) (= ?v_7 x4)) (= ?v_7 x5))) (or (or (or (or (= ?v_8 x1) (= ?v_8 x2)) (= ?v_8 x3)) (= ?v_8 x4)) (= ?v_8 x5))) (or (or (or (or (= ?v_9 x1) (= ?v_9 x2)) (= ?v_9 x3)) (= ?v_9 x4)) (= ?v_9 x5))) (or (or (or (or (= ?v_10 x1) (= ?v_10 x2)) (= ?v_10 x3)) (= ?v_10 x4)) (= ?v_10 x5))) (or (or (or (or (= ?v_11 x1) (= ?v_11 x2)) (= ?v_11 x3)) (= ?v_11 x4)) (= ?v_11 x5))) (or (or (or (or (= ?v_12 x1) (= ?v_12 x2)) (= ?v_12 x3)) (= ?v_12 x4)) (= ?v_12 x5))) (or (or (or (or (= ?v_13 x1) (= ?v_13 x2)) (= ?v_13 x3)) (= ?v_13 x4)) (= ?v_13 x5))) (or (or (or (or (= ?v_14 x1) (= ?v_14 x2)) (= ?v_14 x3)) (= ?v_14 x4)) (= ?v_14 x5))) (or (or (or (or (= ?v_15 x1) (= ?v_15 x2)) (= ?v_15 x3)) (= ?v_15 x4)) (= ?v_15 x5))) (or (or (or (or (= ?v_16 x1) (= ?v_16 x2)) (= ?v_16 x3)) (= ?v_16 x4)) (= ?v_16 x5))) (or (or (or (or (= ?v_17 x1) (= ?v_17 x2)) (= ?v_17 x3)) (= ?v_17 x4)) (= ?v_17 x5))) (or (or (or (or (= ?v_18 x1) (= ?v_18 x2)) (= ?v_18 x3)) (= ?v_18 x4)) (= ?v_18 x5))) (or (or (or (or (= ?v_19 x1) (= ?v_19 x2)) (= ?v_19 x3)) (= ?v_19 x4)) (= ?v_19 x5))) (or (or (or (or (= ?v_20 x1) (= ?v_20 x2)) (= ?v_20 x3)) (= ?v_20 x4)) (= ?v_20 x5))) (or (or (or (or (= ?v_21 x1) (= ?v_21 x2)) (= ?v_21 x3)) (= ?v_21 x4)) (= ?v_21 x5))) (or (or (or (or (= ?v_22 x1) (= ?v_22 x2)) (= ?v_22 x3)) (= ?v_22 x4)) (= ?v_22 x5))) (or (or (or (or (= ?v_23 x1) (= ?v_23 x2)) (= ?v_23 x3)) (= ?v_23 x4)) (= ?v_23 x5))) (or (or (or (or (= ?v_24 x1) (= ?v_24 x2)) (= ?v_24 x3)) (= ?v_24 x4)) (= ?v_24 x5))) (or (or (or (or (= ?v_25 x1) (= ?v_25 x2)) (= ?v_25 x3)) (= ?v_25 x4)) (= ?v_25 x5))) (or (or (or (or (= ?v_26 x1) (= ?v_26 x2)) (= ?v_26 x3)) (= ?v_26 x4)) (= ?v_26 x5))) (or (or (or (or (= ?v_27 x1) (= ?v_27 x2)) (= ?v_27 x3)) (= ?v_27 x4)) (= ?v_27 x5))) (or (or (or (or (= ?v_28 x1) (= ?v_28 x2)) (= ?v_28 x3)) (= ?v_28 x4)) (= ?v_28 x5))) (or (or (or (or (= ?v_29 x1) (= ?v_29 x2)) (= ?v_29 x3)) (= ?v_29 x4)) (= ?v_29 x5))) (or (or (or (or (= ?v_30 x1) (= ?v_30 x2)) (= ?v_30 x3)) (= ?v_30 x4)) (= ?v_30 x5))) (or (or (or (or (= ?v_31 x1) (= ?v_31 x2)) (= ?v_31 x3)) (= ?v_31 x4)) (= ?v_31 x5))) (or (or (or (or (= ?v_32 x1) (= ?v_32 x2)) (= ?v_32 x3)) (= ?v_32 x4)) (= ?v_32 x5))) (or (or (or (or (= ?v_33 x1) (= ?v_33 x2)) (= ?v_33 x3)) (= ?v_33 x4)) (= ?v_33 x5))) (or (or (or (or (= ?v_34 x1) (= ?v_34 x2)) (= ?v_34 x3)) (= ?v_34 x4)) (= ?v_34 x5))) (or (or (or (or (= ?v_35 x1) (= ?v_35 x2)) (= ?v_35 x3)) (= ?v_35 x4)) (= ?v_35 x5))) (or (or (or (or (= ?v_36 x1) (= ?v_36 x2)) (= ?v_36 x3)) (= ?v_36 x4)) (= ?v_36 x5))) (or (or (or (or (= ?v_37 x1) (= ?v_37 x2)) (= ?v_37 x3)) (= ?v_37 x4)) (= ?v_37 x5))) (or (or (or (or (= ?v_38 x1) (= ?v_38 x2)) (= ?v_38 x3)) (= ?v_38 x4)) (= ?v_38 x5))) (or (or (or (or (= ?v_39 x1) (= ?v_39 x2)) (= ?v_39 x3)) (= ?v_39 x4)) (= ?v_39 x5))) (or (or (or (or (= ?v_40 x1) (= ?v_40 x2)) (= ?v_40 x3)) (= ?v_40 x4)) (= ?v_40 x5))) (or (or (or (or (= ?v_41 x1) (= ?v_41 x2)) (= ?v_41 x3)) (= ?v_41 x4)) (= ?v_41 x5))) (or (or (or (or (= ?v_42 x1) (= ?v_42 x2)) (= ?v_42 x3)) (= ?v_42 x4)) (= ?v_42 x5))) (or (or (or (or (= ?v_43 x1) (= ?v_43 x2)) (= ?v_43 x3)) (= ?v_43 x4)) (= ?v_43 x5))) (or (or (or (or (= ?v_44 x1) (= ?v_44 x2)) (= ?v_44 x3)) (= ?v_44 x4)) (= ?v_44 x5))) (or (or (or (or (= ?v_45 x1) (= ?v_45 x2)) (= ?v_45 x3)) (= ?v_45 x4)) (= ?v_45 x5))) (or (or (or (or (= ?v_46 x1) (= ?v_46 x2)) (= ?v_46 x3)) (= ?v_46 x4)) (= ?v_46 x5))) (or (or (or (or (= ?v_47 x1) (= ?v_47 x2)) (= ?v_47 x3)) (= ?v_47 x4)) (= ?v_47 x5))) (or (or (or (or (= ?v_48 x1) (= ?v_48 x2)) (= ?v_48 x3)) (= ?v_48 x4)) (= ?v_48 x5))) (or (or (or (or (= ?v_49 x1) (= ?v_49 x2)) (= ?v_49 x3)) (= ?v_49 x4)) (= ?v_49 x5))) (or (or (or (or (= ?v_50 x1) (= ?v_50 x2)) (= ?v_50 x3)) (= ?v_50 x4)) (= ?v_50 x5))) (or (or (or (or (= ?v_51 x1) (= ?v_51 x2)) (= ?v_51 x3)) (= ?v_51 x4)) (= ?v_51 x5))) (or (or (or (or (= ?v_52 x1) (= ?v_52 x2)) (= ?v_52 x3)) (= ?v_52 x4)) (= ?v_52 x5))) (or (or (or (or (= ?v_53 x1) (= ?v_53 x2)) (= ?v_53 x3)) (= ?v_53 x4)) (= ?v_53 x5))) (or (or (or (or (= ?v_54 x1) (= ?v_54 x2)) (= ?v_54 x3)) (= ?v_54 x4)) (= ?v_54 x5))) (or (or (or (or (= ?v_55 x1) (= ?v_55 x2)) (= ?v_55 x3)) (= ?v_55 x4)) (= ?v_55 x5))) (or (or (or (or (= ?v_56 x1) (= ?v_56 x2)) (= ?v_56 x3)) (= ?v_56 x4)) (= ?v_56 x5))) (or (or (or (or (= ?v_57 x1) (= ?v_57 x2)) (= ?v_57 x3)) (= ?v_57 x4)) (= ?v_57 x5))) (or (or (or (or (= ?v_58 x1) (= ?v_58 x2)) (= ?v_58 x3)) (= ?v_58 x4)) (= ?v_58 x5))) (or (or (or (or (= ?v_59 x1) (= ?v_59 x2)) (= ?v_59 x3)) (= ?v_59 x4)) (= ?v_59 x5))) (or (or (or (or (= ?v_60 x1) (= ?v_60 x2)) (= ?v_60 x3)) (= ?v_60 x4)) (= ?v_60 x5))) (or (or (or (or (= ?v_61 x1) (= ?v_61 x2)) (= ?v_61 x3)) (= ?v_61 x4)) (= ?v_61 x5))) (or (or (or (or (= ?v_62 x1) (= ?v_62 x2)) (= ?v_62 x3)) (= ?v_62 x4)) (= ?v_62 x5))) (or (or (or (or (= ?v_63 x1) (= ?v_63 x2)) (= ?v_63 x3)) (= ?v_63 x4)) (= ?v_63 x5))) (or (or (or (or (= ?v_64 x1) (= ?v_64 x2)) (= ?v_64 x3)) (= ?v_64 x4)) (= ?v_64 x5))) (or (or (or (or (= ?v_65 x1) (= ?v_65 x2)) (= ?v_65 x3)) (= ?v_65 x4)) (= ?v_65 x5))) (or (or (or (or (= ?v_66 x1) (= ?v_66 x2)) (= ?v_66 x3)) (= ?v_66 x4)) (= ?v_66 x5))) (or (or (or (or (= ?v_67 x1) (= ?v_67 x2)) (= ?v_67 x3)) (= ?v_67 x4)) (= ?v_67 x5))) (or (or (or (or (= ?v_68 x1) (= ?v_68 x2)) (= ?v_68 x3)) (= ?v_68 x4)) (= ?v_68 x5))) (or (or (or (or (= ?v_69 x1) (= ?v_69 x2)) (= ?v_69 x3)) (= ?v_69 x4)) (= ?v_69 x5))) (or (or (or (or (= ?v_70 x1) (= ?v_70 x2)) (= ?v_70 x3)) (= ?v_70 x4)) (= ?v_70 x5))) (or (or (or (or (= ?v_71 x1) (= ?v_71 x2)) (= ?v_71 x3)) (= ?v_71 x4)) (= ?v_71 x5))) (or (or (or (or (= ?v_72 x1) (= ?v_72 x2)) (= ?v_72 x3)) (= ?v_72 x4)) (= ?v_72 x5))) (or (or (or (or (= ?v_73 x1) (= ?v_73 x2)) (= ?v_73 x3)) (= ?v_73 x4)) (= ?v_73 x5))) (or (or (or (or (= ?v_74 x1) (= ?v_74 x2)) (= ?v_74 x3)) (= ?v_74 x4)) (= ?v_74 x5))) (or (or (or (or (= ?v_75 x1) (= ?v_75 x2)) (= ?v_75 x3)) (= ?v_75 x4)) (= ?v_75 x5))) (or (or (or (or (= ?v_76 x1) (= ?v_76 x2)) (= ?v_76 x3)) (= ?v_76 x4)) (= ?v_76 x5))) (or (or (or (or (= ?v_77 x1) (= ?v_77 x2)) (= ?v_77 x3)) (= ?v_77 x4)) (= ?v_77 x5))) (or (or (or (or (= ?v_78 x1) (= ?v_78 x2)) (= ?v_78 x3)) (= ?v_78 x4)) (= ?v_78 x5))) (or (or (or (or (= ?v_79 x1) (= ?v_79 x2)) (= ?v_79 x3)) (= ?v_79 x4)) (= ?v_79 x5))) (or (or (or (or (= ?v_80 x1) (= ?v_80 x2)) (= ?v_80 x3)) (= ?v_80 x4)) (= ?v_80 x5))) (or (or (or (or (= ?v_81 x1) (= ?v_81 x2)) (= ?v_81 x3)) (= ?v_81 x4)) (= ?v_81 x5))) (or (or (or (or (= ?v_82 x1) (= ?v_82 x2)) (= ?v_82 x3)) (= ?v_82 x4)) (= ?v_82 x5))) (or (or (or (or (= ?v_83 x1) (= ?v_83 x2)) (= ?v_83 x3)) (= ?v_83 x4)) (= ?v_83 x5))) (or (or (or (or (= ?v_84 x1) (= ?v_84 x2)) (= ?v_84 x3)) (= ?v_84 x4)) (= ?v_84 x5))) (or (or (or (or (= ?v_85 x1) (= ?v_85 x2)) (= ?v_85 x3)) (= ?v_85 x4)) (= ?v_85 x5))) (or (or (or (or (= ?v_86 x1) (= ?v_86 x2)) (= ?v_86 x3)) (= ?v_86 x4)) (= ?v_86 x5))) (or (or (or (or (= ?v_87 x1) (= ?v_87 x2)) (= ?v_87 x3)) (= ?v_87 x4)) (= ?v_87 x5))) (or (or (or (or (= ?v_88 x1) (= ?v_88 x2)) (= ?v_88 x3)) (= ?v_88 x4)) (= ?v_88 x5))) (or (or (or (or (= ?v_89 x1) (= ?v_89 x2)) (= ?v_89 x3)) (= ?v_89 x4)) (= ?v_89 x5))) (distinct x1 x2)) (distinct x1 x3)) (distinct x1 x4)) (distinct x1 x5)) (distinct x2 x3)) (distinct x2 x4)) (distinct x2 x5)) (distinct x3 x4)) (distinct x3 x5)) (distinct x4 x5)) (<= 0 x1)) (< x1 6)) (<= 0 x2)) (< x2 6)) (<= 0 x3)) (< x3 6)) (<= 0 x4)) (< x4 6)) (<= 0 x5)) (< x5 6)) (= (hash_1 (hash_1 (hash_18 (ite (< ?v_90 6) ?v_90 x1)))) (hash_1 (hash_1 (hash_18 (ite (< ?v_91 6) ?v_91 x1))))))))
(check-sat)
(exit)
